c instance by G2
c solution = 010110110111000
c Known solution cost is 63
p cnf 15 15
w 7 1 1 0 9 0 3 9 5 1 8 8 2 4 5
-4 3 -13 0
-11 5 -2 0
-13 -12 -6 0
-3 -2 12 0
-8 -1 -4 0
7 -14 -2 0
-14 -15 -1 0
6 14 2 0
-9 13 1 0
3 6 4 0
-6 -2 -11 0
-5 -14 1 0
-11 -4 -15 0
3 -13 -14 0
11 -1 -14 0
